AME : levi30_20
COMMENT : 30: 36x20 -city problem (levikoppenhol)
TYPE : TSP
DIMENSION : 30
EDGE_WEIGHT_TYPE : EUC_2D
NODE_COORD_SECTION
1 20 15
2 8 3
3 13 20
4 1 9
5 1 11
6 13 18
7 13 21
8 17 34
9 4 31
10 11 19
11 16 10
12 3 27
13 18 12
14 1 22
15 0 36
16 11 26
17 9 3
18 1 31
19 19 9
20 1 0
21 13 4
22 4 18
23 11 26
24 8 21
25 10 14
26 19 12
27 4 17
28 14 23
29 15 32
30 3 0
EOF